10
4
 38  52
 93  69
 35  56
  3  64
  3  55
 24   8
 94   5
 60  77
 69  99
  6  46
 75  24
 51  97
 94  60
 43  19
 63   4
 37  31
  8  99
 63  33
 12  11
 78  88
 63  36
 83  92
 79  15
 44  34
 96 100
